RT is False
Default write of storage_offers_DA.csv just to have a file (but constraint should be inactive)
Reading model...
...model read.
creating competitive generators file...
...competitive generators recorded.
Loading data...
.. day-ahead data read.
Compiling instance...
...instance created.
Creating Offer Mitigation (model will solve as dispatch if TRUE)...
...storage offer mitigation file created
Converting model to MPEC...
...converted
NOTE: initial MIP solve with only storage competitive to get feasible solution
Solving...

Welcome to IBM(R) ILOG(R) CPLEX(R) Interactive Optimizer 12.10.0.0
  with Simplex, Mixed Integer & Barrier Optimizers
5725-A06 5725-A29 5724-Y48 5724-Y49 5724-Y54 5724-Y55 5655-Y21
Copyright IBM Corp. 1988, 2019.  All Rights Reserved.

Type 'help' for a list of available commands.
Type 'help' followed by a command name for more
information on commands.

CPLEX> Logfile 'cplex.log' closed.
Logfile 'C:\Users\wenmi\Desktop\competitiveMPEC\logs\tmpnnmoo5q3.cplex.log' open.
CPLEX> New value for parallel optimization mode: -1
CPLEX> New value for mixed integer optimality gap tolerance: 0.05
CPLEX> New value for deterministic time limit in ticks: 100000
CPLEX> Problem 'C:\Users\wenmi\Desktop\competitiveMPEC\logs\tmpwz2czfoe.pyomo.lp' read.
Read time = 0.14 sec. (14.50 ticks)
CPLEX> Problem name         : C:\Users\wenmi\Desktop\competitiveMPEC\logs\tmpwz2czfoe.pyomo.lp
Objective sense      : Maximize
Variables            :   53803  [Nneg: 1,  Box: 21998,  Free: 4464,
                                 Binary: 27340]
Objective nonzeros   :    9044
Linear constraints   :  123205  [Less: 41346,  Greater: 59096,  Equal: 22763]
  Nonzeros           :  289321
  RHS nonzeros       :   67457

Variables            : Min LB: -5000.000        Max UB: 1000000.       
Objective nonzeros   : Min   : 1.000000         Max   : 838.8000       
Linear constraints   :
  Nonzeros           : Min   : 0.8500000        Max   : 1000000.       
  RHS nonzeros       : Min   : 1.000000         Max   : 1000000.       
CPLEX> Version identifier: 12.10.0.0 | 2019-11-26 | 843d4de2ae
CPXPARAM_Parallel                                -1
CPXPARAM_DetTimeLimit                            100000
CPXPARAM_MIP_Tolerances_MIPGap                   0.050000000000000003
Tried aggregator 3 times.
MIP Presolve eliminated 88829 rows and 19101 columns.
MIP Presolve added 3365 rows and 0 columns.
MIP Presolve modified 24856 coefficients.
Aggregator did 13001 substitutions.
Reduced MIP has 24740 rows, 21119 columns, and 68164 nonzeros.
Reduced MIP has 8337 binaries, 0 generals, 0 SOSs, and 0 indicators.
Presolve time = 0.16 sec. (164.67 ticks)
Probing fixed 386 vars, tightened 4179 bounds.
Probing time = 0.03 sec. (18.55 ticks)
Tried aggregator 2 times.
Detecting symmetries...
MIP Presolve eliminated 879 rows and 781 columns.
MIP Presolve modified 3050 coefficients.
Aggregator did 35 substitutions.
Reduced MIP has 23826 rows, 20303 columns, and 65515 nonzeros.
Reduced MIP has 7947 binaries, 0 generals, 0 SOSs, and 0 indicators.
Presolve time = 0.06 sec. (91.06 ticks)
Probing fixed 0 vars, tightened 312 bounds.
Probing time = 0.06 sec. (22.29 ticks)
Clique table members: 44942.
MIP emphasis: balance optimality and feasibility.
MIP search method: dynamic search.
Parallel mode: opportunistic, using up to 16 threads.
Root relaxation solution time = 0.20 sec. (539.74 ticks)

        Nodes                                         Cuts/
   Node  Left     Objective  IInf  Best Integer    Best Bound    ItCnt     Gap

      0     0     2513.2461    54                   2513.2461     4855         
*     0+    0                         2389.2280     2513.2461             5.19%
      0     0     2513.2461    54     2389.2280       Cuts: 2     4860    5.19%
*     0+    0                         2509.4233     2513.2461             0.15%

Implied bound cuts applied:  3
Flow cuts applied:  5
Mixed integer rounding cuts applied:  2
Gomory fractional cuts applied:  1

Root node processing (before b&c):
  Real time             =    1.20 sec. (1423.61 ticks)
Parallel b&c, 16 threads:
  Real time             =    0.00 sec. (0.00 ticks)
  Sync time (average)   =    0.00 sec.
  Wait time (average)   =    0.00 sec.
                          ------------
Total (root+branch&cut) =    1.20 sec. (1423.61 ticks)

Solution pool: 2 solutions saved.

MIP - Integer optimal, tolerance (0.05/1e-06):  Objective =  2.5094233373e+03
Current MIP best bound =  2.5132461385e+03 (gap = 3.8228, 0.15%)
Solution time =    1.20 sec.  Iterations = 4866  Nodes = 0 (1)
Deterministic time = 1423.77 ticks  (1183.51 ticks/sec)

CPLEX> Incumbent solution written to file 'C:\Users\wenmi\Desktop\competitiveMPEC\logs\tmpuu2ga2y3.cplex.sol'.
CPLEX> NOTE: no warmstart specified for MIP iteration, default behavior is true
NOTE: resolving with all competitive generators using storage-only solution to warmstart
Solving...

Welcome to IBM(R) ILOG(R) CPLEX(R) Interactive Optimizer 12.10.0.0
  with Simplex, Mixed Integer & Barrier Optimizers
5725-A06 5725-A29 5724-Y48 5724-Y49 5724-Y54 5724-Y55 5655-Y21
Copyright IBM Corp. 1988, 2019.  All Rights Reserved.

Type 'help' for a list of available commands.
Type 'help' followed by a command name for more
information on commands.

CPLEX> Logfile 'cplex.log' closed.
Logfile 'C:\Users\wenmi\Desktop\competitiveMPEC\logs\tmpo6mn8av8.cplex.log' open.
CPLEX> New value for parallel optimization mode: -1
CPLEX> New value for mixed integer optimality gap tolerance: 0.05
CPLEX> New value for deterministic time limit in ticks: 100000
CPLEX> Problem 'C:\Users\wenmi\Desktop\competitiveMPEC\logs\tmpiglyfvlw.pyomo.lp' read.
Read time = 0.14 sec. (14.52 ticks)
CPLEX> MIP start file 'C:\Users\wenmi\Desktop\competitiveMPEC\logs\tmpzbj70v4_.cplex.mst' read.
CPLEX> Problem name         : C:\Users\wenmi\Desktop\competitiveMPEC\logs\tmpiglyfvlw.pyomo.lp
Objective sense      : Maximize
Variables            :   54523  [Nneg: 1,  Box: 22718,  Free: 4464,
                                 Binary: 27340]
Objective nonzeros   :    9740
Linear constraints   :  123205  [Less: 41346,  Greater: 59096,  Equal: 22763]
  Nonzeros           :  289321
  RHS nonzeros       :   67457

Variables            : Min LB: -5000.000        Max UB: 1000000.       
Objective nonzeros   : Min   : 1.000000         Max   : 799.1000       
Linear constraints   :
  Nonzeros           : Min   : 0.8500000        Max   : 1000000.       
  RHS nonzeros       : Min   : 1.000000         Max   : 1000000.       
CPLEX> Version identifier: 12.10.0.0 | 2019-11-26 | 843d4de2ae
CPXPARAM_Parallel                                -1
CPXPARAM_DetTimeLimit                            100000
CPXPARAM_MIP_Tolerances_MIPGap                   0.050000000000000003
1 of 1 MIP starts provided solutions.
MIP start 'm1' defined initial solution with objective 2509.4233.
Tried aggregator 3 times.
MIP Presolve eliminated 88829 rows and 19821 columns.
MIP Presolve added 3365 rows and 0 columns.
MIP Presolve modified 24856 coefficients.
Aggregator did 13001 substitutions.
Reduced MIP has 24740 rows, 21119 columns, and 68164 nonzeros.
Reduced MIP has 8337 binaries, 0 generals, 0 SOSs, and 0 indicators.
Presolve time = 0.16 sec. (165.02 ticks)
Probing fixed 386 vars, tightened 4179 bounds.
Probing time = 0.03 sec. (18.55 ticks)
Tried aggregator 2 times.
Detecting symmetries...
MIP Presolve eliminated 879 rows and 781 columns.
MIP Presolve modified 3050 coefficients.
Aggregator did 35 substitutions.
Reduced MIP has 23826 rows, 20303 columns, and 65515 nonzeros.
Reduced MIP has 7947 binaries, 0 generals, 0 SOSs, and 0 indicators.
Presolve time = 0.06 sec. (91.06 ticks)
Probing fixed 0 vars, tightened 312 bounds.
Probing time = 0.06 sec. (22.29 ticks)
Clique table members: 44942.
MIP emphasis: balance optimality and feasibility.
MIP search method: dynamic search.
Parallel mode: opportunistic, using up to 16 threads.
Root relaxation solution time = 0.23 sec. (565.05 ticks)

        Nodes                                         Cuts/
   Node  Left     Objective  IInf  Best Integer    Best Bound    ItCnt     Gap

*     0+    0                         2509.4233   7.22932e+07              --- 
      0     0    99347.7277   146     2509.4233    99347.7277     5628     --- 
      0     0    96883.4872   146     2509.4233     Cuts: 433     5827     --- 
      0     0    96642.6483   146     2509.4233      Cuts: 42     5875     --- 
      0     0    96590.9191   146     2509.4233      Cuts: 38     5912     --- 
      0     0    96590.9052   146     2509.4233      Cuts: 29     5934     --- 
      0     0    96590.9052   146     2509.4233      Cuts: 16     5955     --- 
*     0+    0                         2509.4234    96590.9052              --- 
      0    13        cutoff           2509.4234    96587.3119     6115     --- 
Elapsed time = 3.13 sec. (2687.45 ticks, tree = 0.02 MB, solutions = 2)
     91    51    84886.0530   135     2509.4234    94912.7350     6377     --- 
    316    73    80143.9054   109     2509.4234    94912.7350     6669     --- 
    642   555    75505.9659    79     2509.4234    94912.7350     9385     --- 
   1121   429        cutoff           2509.4234    94912.7350     8830     --- 
   1473   593    65971.5544    75     2509.4234    94912.7350     9701     --- 
   1808   639        cutoff           2509.4234    94912.7350    10179     --- 
   2132  1357     7084.4789    26     2509.4234    93797.1065    17952     --- 
   2425  1415    43803.4525    95     2509.4234    87717.9587    19564     --- 
   2727  1547        cutoff           2509.4234    87322.2367    22554     --- 
   3855  2070    41211.4770   115     2509.4234    82935.9473    39101     --- 
Elapsed time = 16.20 sec. (5791.05 ticks, tree = 13.78 MB, solutions = 2)
   5126  2267     2569.2457    17     2509.4234    79838.4487    48887     --- 
   6355  2685     5737.8945    17     2509.4234    78551.4159    70821     --- 

Performing restart 1

Repeating presolve.
Tried aggregator 4 times.
MIP Presolve eliminated 834 rows and 750 columns.
MIP Presolve modified 47920 coefficients.
Aggregator did 232 substitutions.
Reduced MIP has 22760 rows, 19321 columns, and 62032 nonzeros.
Reduced MIP has 7620 binaries, 0 generals, 0 SOSs, and 0 indicators.
Presolve time = 0.09 sec. (111.43 ticks)
Tried aggregator 3 times.
MIP Presolve eliminated 413 rows and 342 columns.
MIP Presolve modified 11711 coefficients.
Aggregator did 6 substitutions.
Reduced MIP has 22341 rows, 18973 columns, and 60879 nonzeros.
Reduced MIP has 7449 binaries, 0 generals, 0 SOSs, and 0 indicators.
Presolve time = 0.05 sec. (50.32 ticks)
Tried aggregator 1 time.
MIP Presolve modified 10616 coefficients.
Reduced MIP has 22341 rows, 18973 columns, and 60879 nonzeros.
Reduced MIP has 7449 binaries, 0 generals, 0 SOSs, and 0 indicators.
Presolve time = 0.05 sec. (41.48 ticks)
Represolve time = 0.61 sec. (462.16 ticks)
   6505     0    56174.7359    93     2509.4234     Cuts: 146    85757     --- 
   6505     0    45033.2055    93     2509.4234     Cuts: 102    85876     --- 
   6505     0    31807.3528    93     2509.4234     Cuts: 119    86024  821.64%

Cover cuts applied:  1
Implied bound cuts applied:  12
Flow cuts applied:  120
Mixed integer rounding cuts applied:  64
Lift and project cuts applied:  6
Gomory fractional cuts applied:  20

Root node processing (before b&c):
  Real time             =    2.53 sec. (2665.19 ticks)
Parallel b&c, 16 threads:
  Real time             =   21.86 sec. (7725.41 ticks)
  Sync time (average)   =    0.25 sec.
  Wait time (average)   =    0.00 sec.
                          ------------
Total (root+branch&cut) =   24.39 sec. (10390.61 ticks)

Solution pool: 2 solutions saved.

MIP - Integer optimal, tolerance (0.05/1e-06):  Objective =  2.5094233814e+03
Current MIP best bound =  2.5132461385e+03 (gap = 3.82276, 0.15%)
Solution time =   24.39 sec.  Iterations = 86070  Nodes = 6505 (1)
Deterministic time = 10390.76 ticks  (426.01 ticks/sec)

CPLEX> Incumbent solution written to file 'C:\Users\wenmi\Desktop\competitiveMPEC\logs\tmphpay06gc.cplex.sol'.
CPLEX> Exporting results... 
